DIMACS2
80 274 308 140 287 283 98 170 36 226 32 177 119 246 218 132 286 306 70 49 204 160 134 271 92 254 17 285 245 16 197 255 76 38 58 277 59 205 63 161 118 158 176 104 222 146 300 2 193 301 21 18 296 144 20 120 289 68 227 37 166 203 27 288 214 28 138 302 212 311 317 125 3 136 109 223 73 208 309 243 187
p edge 320 1936
e 0 139 2.0
e 1 87 1.0
e 2 114 5.0
e 2 82 18.0
e 2 126 19.0
e 2 231 35.0
e 2 93 38.0
e 2 229 44.0
e 2 213 41.0
e 2 313 47.0
e 2 5 28.0
e 2 260 15.0
e 2 42 46.0
e 2 130 31.0
e 2 89 2.0
e 2 67 41.0
e 2 279 21.0
e 2 314 4.0
e 2 310 6.0
e 2 88 16.0
e 2 124 14.0
e 2 185 42.0
e 2 83 7.0
e 2 180 35.0
e 2 265 34.0
e 3 204 23.0
e 3 254 25.0
e 3 259 30.0
e 3 139 42.0
e 3 289 46.0
e 3 121 42.0
e 3 287 49.0
e 3 52 17.0
e 3 237 1.0
e 3 236 34.0
e 3 241 5.0
e 3 92 48.0
e 3 12 27.0
e 3 261 14.0
e 3 17 43.0
e 3 4 8.0
e 3 262 45.0
e 3 203 39.0
e 3 91 6.0
e 3 169 3.0
e 3 197 13.0
e 3 154 45.0
e 3 36 31.0
e 3 313 23.0
e 3 108 16.0
e 4 210 1.0
e 5 45 1.0
e 6 50 4.0
e 7 196 1.0
e 8 164 4.0
e 8 173 3.0
e 8 253 1.0
e 9 117 1.0
e 10 193 8.0
e 10 0 1.0
e 11 83 1.0
e 12 246 34.0
e 13 110 1.0
e 13 23 6.0
e 13 184 2.0
e 14 109 31.0
e 15 18 24.0
e 15 179 9.0
e 15 43 2.0
e 15 271 33.0
e 15 204 35.0
e 15 244 1.0
e 15 176 49.0
e 16 56 32.0
e 16 295 21.0
e 16 273 46.0
e 16 109 5.0
e 16 111 37.0
e 16 138 3.0
e 16 127 44.0
e 16 201 4.0
e 16 216 12.0
e 16 194 2.0
e 16 33 7.0
e 16 29 5.0
e 16 67 49.0
e 16 28 40.0
e 16 75 9.0
e 16 299 13.0
e 16 291 24.0
e 16 217 46.0
e 16 289 27.0
e 16 171 7.0
e 16 316 41.0
e 16 169 33.0
e 16 42 16.0
e 16 31 34.0
e 16 68 20.0
e 17 160 5.0
e 17 72 18.0
e 17 127 41.0
e 17 307 9.0
e 17 7 33.0
e 17 194 22.0
e 17 102 20.0
e 17 133 7.0
e 17 208 20.0
e 17 63 48.0
e 17 172 30.0
e 17 248 18.0
e 17 50 6.0
e 17 260 2.0
e 17 199 17.0
e 17 295 15.0
e 17 27 43.0
e 17 314 21.0
e 17 78 5.0
e 17 79 18.0
e 17 66 42.0
e 17 153 49.0
e 17 279 34.0
e 18 198 31.0
e 18 249 38.0
e 18 79 2.0
e 18 265 15.0
e 18 138 27.0
e 18 114 35.0
e 18 264 45.0
e 18 188 11.0
e 18 314 38.0
e 18 99 29.0
e 18 298 17.0
e 18 135 24.0
e 18 160 17.0
e 18 179 35.0
e 18 255 15.0
e 18 81 38.0
e 18 217 18.0
e 18 310 20.0
e 18 32 41.0
e 18 80 22.0
e 18 27 43.0
e 18 216 16.0
e 18 252 12.0
e 18 257 3.0
e 19 303 1.0
e 20 270 45.0
e 20 268 24.0
e 20 116 42.0
e 20 239 49.0
e 20 308 16.0
e 20 130 5.0
e 20 51 21.0
e 20 201 33.0
e 20 13 9.0
e 20 43 25.0
e 20 41 8.0
e 20 74 1.0
e 20 81 10.0
e 20 106 28.0
e 20 260 6.0
e 20 127 21.0
e 20 128 18.0
e 20 135 6.0
e 20 202 41.0
e 20 54 38.0
e 20 46 44.0
e 20 45 32.0
e 20 42 48.0
e 20 171 23.0
e 21 152 12.0
e 21 192 20.0
e 21 218 22.0
e 21 58 31.0
e 21 104 20.0
e 21 36 9.0
e 21 59 25.0
e 21 247 5.0
e 21 301 30.0
e 21 148 45.0
e 21 45 1.0
e 21 124 49.0
e 21 38 29.0
e 21 198 46.0
e 21 13 3.0
e 21 70 19.0
e 21 157 26.0
e 21 236 4.0
e 21 182 31.0
e 21 44 5.0
e 21 73 18.0
e 21 3 27.0
e 21 275 36.0
e 21 263 41.0
e 22 87 1.0
e 23 109 11.0
e 24 217 4.0
e 25 300 40.0
e 26 254 30.0
e 27 231 14.0
e 27 202 13.0
e 27 208 36.0
e 27 232 3.0
e 27 230 30.0
e 27 170 8.0
e 27 278 5.0
e 27 4 4.0
e 27 14 9.0
e 27 71 41.0
e 27 105 41.0
e 27 5 47.0
e 27 115 17.0
e 27 85 17.0
e 27 48 44.0
e 27 6 21.0
e 27 180 7.0
e 27 296 2.0
e 27 227 4.0
e 27 287 29.0
e 27 223 41.0
e 28 11 6.0
e 28 125 47.0
e 28 124 49.0
e 28 80 15.0
e 28 278 7.0
e 28 138 39.0
e 28 65 46.0
e 28 225 49.0
e 28 273 41.0
e 28 287 48.0
e 28 193 3.0
e 28 236 29.0
e 28 263 19.0
e 28 121 38.0
e 28 89 25.0
e 28 288 11.0
e 28 93 21.0
e 28 103 19.0
e 28 247 44.0
e 28 21 31.0
e 28 167 2.0
e 28 101 20.0
e 28 12 45.0
e 29 306 5.0
e 30 304 1.0
e 31 260 1.0
e 32 255 4.0
e 32 196 7.0
e 32 301 2.0
e 32 309 3.0
e 32 187 18.0
e 32 96 24.0
e 32 166 7.0
e 32 256 6.0
e 32 249 19.0
e 32 206 39.0
e 32 250 6.0
e 32 279 10.0
e 32 13 39.0
e 32 40 2.0
e 32 65 35.0
e 32 182 22.0
e 32 269 24.0
e 32 63 33.0
e 32 121 14.0
e 32 276 1.0
e 32 53 48.0
e 32 305 33.0
e 32 168 22.0
e 33 72 1.0
e 34 255 43.0
e 35 77 2.0
e 36 35 3.0
e 36 62 6.0
e 36 208 4.0
e 36 222 38.0
e 36 250 20.0
e 36 274 34.0
e 36 11 1.0
e 36 211 37.0
e 36 102 40.0
e 36 77 5.0
e 36 180 43.0
e 36 195 5.0
e 36 309 20.0
e 36 104 45.0
e 36 150 20.0
e 36 166 33.0
e 36 124 4.0
e 36 231 11.0
e 36 89 3.0
e 36 291 24.0
e 36 283 13.0
e 36 5 36.0
e 36 39 9.0
e 37 313 49.0
e 37 248 27.0
e 37 110 18.0
e 37 83 13.0
e 37 134 45.0
e 37 41 33.0
e 37 182 36.0
e 37 36 13.0
e 37 316 20.0
e 37 66 12.0
e 37 175 30.0
e 37 81 13.0
e 37 214 1.0
e 37 288 42.0
e 37 244 14.0
e 37 68 8.0
e 37 74 6.0
e 37 224 43.0
e 37 11 15.0
e 37 317 17.0
e 37 310 20.0
e 37 133 42.0
e 37 263 29.0
e 37 230 35.0
e 38 8 47.0
e 38 62 48.0
e 38 63 47.0
e 38 109 35.0
e 38 19 1.0
e 38 243 11.0
e 38 296 29.0
e 38 209 46.0
e 38 112 40.0
e 38 44 15.0
e 38 45 26.0
e 38 293 20.0
e 38 257 15.0
e 38 174 6.0
e 38 306 30.0
e 38 276 37.0
e 38 273 42.0
e 38 58 8.0
e 38 259 43.0
e 38 189 5.0
e 38 295 2.0
e 38 183 45.0
e 38 37 31.0
e 38 180 31.0
e 39 296 45.0
e 40 215 1.0
e 41 148 3.0
e 42 85 1.0
e 43 10 1.0
e 44 244 2.0
e 45 39 1.0
e 46 304 1.0
e 47 317 49.0
e 47 99 1.0
e 48 194 1.0
e 49 73 16.0
e 49 129 44.0
e 49 151 3.0
e 49 38 48.0
e 49 107 43.0
e 49 103 49.0
e 49 194 7.0
e 49 86 34.0
e 49 237 4.0
e 49 143 11.0
e 49 207 19.0
e 49 302 46.0
e 49 25 23.0
e 49 286 43.0
e 49 221 10.0
e 49 275 19.0
e 49 265 26.0
e 49 290 26.0
e 49 263 33.0
e 49 114 14.0
e 49 255 5.0
e 49 198 21.0
e 49 287 39.0
e 49 105 19.0
e 50 2 38.0
e 50 132 10.0
e 51 271 31.0
e 51 10 1.0
e 52 211 3.0
e 53 284 1.0
e 53 104 34.0
e 54 43 1.0
e 55 304 1.0
e 56 100 1.0
e 57 145 1.0
e 58 234 19.0
e 58 62 17.0
e 58 294 17.0
e 58 55 5.0
e 58 201 2.0
e 58 14 21.0
e 58 295 29.0
e 58 128 28.0
e 58 283 2.0
e 58 141 22.0
e 58 91 14.0
e 58 44 11.0
e 58 176 45.0
e 58 227 34.0
e 58 103 27.0
e 58 284 18.0
e 58 118 3.0
e 58 85 23.0
e 58 92 46.0
e 58 4 21.0
e 58 265 9.0
e 58 286 49.0
e 58 252 43.0
e 59 125 29.0
e 59 210 12.0
e 59 102 13.0
e 59 247 40.0
e 59 180 29.0
e 59 32 37.0
e 59 6 10.0
e 59 120 9.0
e 59 263 23.0
e 59 306 43.0
e 59 314 24.0
e 59 69 33.0
e 59 201 9.0
e 59 301 45.0
e 59 288 47.0
e 59 101 43.0
e 59 281 15.0
e 59 205 10.0
e 59 14 18.0
e 59 127 6.0
e 59 289 3.0
e 60 161 4.0
e 61 153 1.0
e 62 60 1.0
e 63 277 15.0
e 63 212 13.0
e 63 249 36.0
e 63 100 11.0
e 63 150 2.0
e 63 301 29.0
e 63 58 36.0
e 63 149 16.0
e 63 274 8.0
e 63 11 25.0
e 63 35 38.0
e 63 273 46.0
e 63 234 3.0
e 63 184 41.0
e 63 183 5.0
e 63 197 7.0
e 63 246 47.0
e 63 1 20.0
e 63 118 3.0
e 63 258 11.0
e 63 22 1.0
e 64 158 24.0
e 65 35 1.0
e 66 44 1.0
e 67 266 1.0
e 68 27 5.0
e 68 81 23.0
e 68 163 16.0
e 68 29 45.0
e 68 305 24.0
e 68 122 8.0
e 68 284 4.0
e 68 272 25.0
e 68 221 14.0
e 68 310 24.0
e 68 277 3.0
e 68 295 10.0
e 68 138 38.0
e 68 296 20.0
e 68 121 39.0
e 68 256 33.0
e 68 17 29.0
e 68 119 45.0
e 68 99 47.0
e 68 69 5.0
e 68 5 13.0
e 68 215 24.0
e 69 29 1.0
e 70 257 13.0
e 70 268 9.0
e 70 89 13.0
e 70 144 4.0
e 70 208 7.0
e 70 63 35.0
e 70 255 9.0
e 70 244 46.0
e 70 44 27.0
e 70 258 35.0
e 70 73 23.0
e 70 259 49.0
e 70 179 42.0
e 70 8 10.0
e 70 33 24.0
e 70 312 37.0
e 70 6 26.0
e 70 178 16.0
e 70 217 1.0
e 70 205 49.0
e 70 152 15.0
e 70 48 41.0
e 70 288 28.0
e 71 253 1.0
e 72 60 1.0
e 73 173 11.0
e 73 168 17.0
e 73 20 3.0
e 73 150 48.0
e 73 155 25.0
e 73 99 30.0
e 73 19 19.0
e 73 2 16.0
e 73 76 19.0
e 73 165 1.0
e 73 30 31.0
e 73 237 29.0
e 73 34 40.0
e 73 145 3.0
e 73 42 23.0
e 73 162 17.0
e 73 243 5.0
e 73 186 14.0
e 73 170 6.0
e 73 84 31.0
e 73 58 33.0
e 73 65 7.0
e 74 307 1.0
e 75 87 1.0
e 76 61 38.0
e 76 185 27.0
e 76 122 2.0
e 76 208 39.0
e 76 245 3.0
e 76 36 33.0
e 76 189 37.0
e 76 224 23.0
e 76 165 5.0
e 76 111 18.0
e 76 136 34.0
e 76 199 47.0
e 76 282 11.0
e 76 238 28.0
e 76 166 12.0
e 76 74 31.0
e 76 313 42.0
e 76 119 19.0
e 76 46 39.0
e 76 255 30.0
e 76 180 15.0
e 76 254 42.0
e 76 223 10.0
e 77 205 48.0
e 78 234 1.0
e 79 266 1.0
e 80 0 1.0
e 81 117 1.0
e 82 247 1.0
e 83 259 1.0
e 84 234 1.0
e 85 34 1.0
e 86 173 1.0
e 87 104 41.0
e 88 67 1.0
e 89 119 24.0
e 90 184 1.0
e 91 161 33.0
e 92 122 44.0
e 92 150 12.0
e 92 169 12.0
e 92 168 35.0
e 92 277 21.0
e 92 196 39.0
e 92 213 38.0
e 92 130 28.0
e 92 19 7.0
e 92 146 22.0
e 92 9 43.0
e 92 275 12.0
e 92 103 29.0
e 92 211 3.0
e 92 171 5.0
e 92 114 26.0
e 92 118 8.0
e 92 65 8.0
e 92 229 3.0
e 92 7 40.0
e 92 295 21.0
e 92 197 44.0
e 93 102 1.0
e 94 76 4.0
e 94 232 5.0
e 95 305 1.0
e 96 21 28.0
e 97 70 35.0
e 97 192 1.0
e 98 195 39.0
e 98 120 10.0
e 98 282 6.0
e 98 53 24.0
e 98 186 18.0
e 98 254 47.0
e 98 260 4.0
e 98 106 37.0
e 98 72 27.0
e 98 99 31.0
e 98 23 17.0
e 98 145 3.0
e 98 235 48.0
e 98 237 2.0
e 98 35 27.0
e 98 250 11.0
e 98 148 8.0
e 98 299 38.0
e 98 34 19.0
e 98 24 38.0
e 98 84 29.0
e 98 73 48.0
e 98 22 10.0
e 99 19 1.0
e 100 197 43.0
e 101 285 10.0
e 101 176 12.0
e 102 262 1.0
e 103 260 1.0
e 104 221 9.0
e 104 108 33.0
e 104 273 44.0
e 104 314 32.0
e 104 315 44.0
e 104 191 31.0
e 104 73 37.0
e 104 237 35.0
e 104 213 42.0
e 104 228 28.0
e 104 229 22.0
e 104 74 42.0
e 104 126 42.0
e 104 199 40.0
e 104 117 23.0
e 104 281 14.0
e 104 215 34.0
e 104 251 15.0
e 104 274 17.0
e 104 7 26.0
e 104 307 13.0
e 105 22 1.0
e 106 161 32.0
e 107 170 49.0
e 108 134 15.0
e 108 219 6.0
e 108 253 11.0
e 108 259 10.0
e 108 220 2.0
e 109 158 17.0
e 109 75 33.0
e 109 103 20.0
e 109 202 43.0
e 109 317 6.0
e 109 79 2.0
e 109 37 29.0
e 109 318 34.0
e 109 159 13.0
e 109 118 25.0
e 109 160 1.0
e 109 84 24.0
e 109 24 17.0
e 109 227 42.0
e 109 315 27.0
e 109 26 31.0
e 109 296 17.0
e 109 124 27.0
e 109 96 9.0
e 109 113 9.0
e 110 64 1.0
e 111 51 3.0
e 112 69 6.0
e 112 17 48.0
e 113 310 1.0
e 114 26 1.0
e 115 123 1.0
e 116 118 27.0
e 116 51 2.0
e 117 304 1.0
e 118 179 2.0
e 118 283 5.0
e 118 156 13.0
e 118 307 23.0
e 118 71 38.0
e 118 239 15.0
e 118 207 48.0
e 118 240 21.0
e 118 272 18.0
e 118 144 11.0
e 118 189 17.0
e 118 187 32.0
e 118 299 9.0
e 118 85 26.0
e 118 111 34.0
e 118 256 24.0
e 118 123 37.0
e 118 151 46.0
e 118 181 15.0
e 118 82 5.0
e 119 304 37.0
e 119 248 6.0
e 119 41 14.0
e 119 10 4.0
e 119 52 42.0
e 119 249 15.0
e 119 239 16.0
e 119 300 20.0
e 119 100 8.0
e 119 303 32.0
e 119 34 47.0
e 119 78 1.0
e 119 61 23.0
e 119 90 49.0
e 119 88 48.0
e 119 47 35.0
e 119 4 34.0
e 119 30 5.0
e 119 77 4.0
e 119 243 24.0
e 119 228 26.0
e 119 19 29.0
e 120 64 17.0
e 120 149 23.0
e 120 76 23.0
e 120 292 29.0
e 120 37 48.0
e 120 9 35.0
e 120 286 36.0
e 120 308 32.0
e 120 210 27.0
e 120 207 3.0
e 120 39 28.0
e 120 221 13.0
e 120 119 4.0
e 120 203 45.0
e 120 131 38.0
e 120 0 42.0
e 120 160 2.0
e 120 150 13.0
e 120 232 29.0
e 120 183 24.0
e 120 86 42.0
e 120 101 42.0
e 120 264 2.0
e 121 220 1.0
e 122 11 2.0
e 123 199 1.0
e 124 218 46.0
e 124 172 8.0
e 125 229 35.0
e 125 175 18.0
e 125 233 19.0
e 125 70 8.0
e 125 75 1.0
e 125 202 43.0
e 125 253 15.0
e 125 47 33.0
e 125 167 14.0
e 125 173 49.0
e 125 284 9.0
e 125 196 13.0
e 125 181 10.0
e 125 279 41.0
e 125 316 32.0
e 125 186 16.0
e 125 101 46.0
e 125 154 2.0
e 125 95 17.0
e 125 153 30.0
e 125 228 38.0
e 125 98 34.0
e 126 216 1.0
e 127 98 12.0
e 128 251 1.0
e 129 51 2.0
e 130 82 2.0
e 131 34 2.0
e 132 78 19.0
e 132 104 15.0
e 132 43 43.0
e 132 254 33.0
e 132 68 9.0
e 132 309 8.0
e 132 318 41.0
e 132 285 31.0
e 132 72 36.0
e 132 27 24.0
e 132 196 48.0
e 132 186 43.0
e 132 28 39.0
e 132 93 19.0
e 132 299 31.0
e 132 200 42.0
e 132 131 47.0
e 132 0 44.0
e 132 60 43.0
e 132 61 25.0
e 132 133 27.0
e 132 151 44.0
e 132 95 36.0
e 132 20 5.0
e 133 138 5.0
e 134 45 31.0
e 134 217 19.0
e 134 137 26.0
e 134 55 46.0
e 134 317 34.0
e 134 296 12.0
e 134 141 7.0
e 134 312 38.0
e 134 118 46.0
e 134 77 6.0
e 134 161 1.0
e 134 159 28.0
e 134 197 41.0
e 134 194 8.0
e 134 259 37.0
e 134 288 12.0
e 134 222 38.0
e 134 278 23.0
e 134 110 47.0
e 134 46 42.0
e 134 50 46.0
e 134 93 3.0
e 134 96 34.0
e 135 217 1.0
e 136 268 24.0
e 136 16 10.0
e 136 261 33.0
e 136 181 43.0
e 136 216 21.0
e 136 177 36.0
e 136 31 34.0
e 136 81 33.0
e 136 262 2.0
e 136 9 21.0
e 136 54 4.0
e 136 240 32.0
e 136 22 17.0
e 136 306 38.0
e 136 256 5.0
e 136 303 20.0
e 136 298 20.0
e 136 84 28.0
e 136 215 30.0
e 136 37 35.0
e 136 311 23.0
e 136 279 38.0
e 136 139 34.0
e 136 312 38.0
e 137 293 1.0
e 138 200 40.0
e 138 111 9.0
e 138 2 29.0
e 138 174 12.0
e 138 122 49.0
e 138 289 42.0
e 138 176 1.0
e 138 76 21.0
e 138 211 7.0
e 138 156 42.0
e 138 92 6.0
e 138 265 13.0
e 138 154 26.0
e 138 165 44.0
e 138 64 39.0
e 138 266 23.0
e 138 123 14.0
e 138 274 42.0
e 138 167 30.0
e 138 77 1.0
e 139 308 33.0
e 140 56 21.0
e 140 219 40.0
e 140 28 12.0
e 140 264 35.0
e 140 245 13.0
e 140 296 38.0
e 140 305 17.0
e 140 317 16.0
e 140 20 33.0
e 140 68 42.0
e 140 284 13.0
e 140 280 32.0
e 140 177 28.0
e 140 104 44.0
e 140 310 34.0
e 140 151 10.0
e 140 316 38.0
e 140 11 17.0
e 140 244 33.0
e 140 265 5.0
e 140 59 3.0
e 140 21 17.0
e 140 168 35.0
e 140 174 29.0
e 141 165 1.0
e 142 270 1.0
e 143 122 1.0
e 144 32 37.0
e 144 179 44.0
e 144 33 15.0
e 144 178 34.0
e 144 220 2.0
e 144 2 47.0
e 144 166 23.0
e 144 230 26.0
e 144 55 3.0
e 144 54 27.0
e 144 93 41.0
e 144 221 43.0
e 144 223 22.0
e 144 315 46.0
e 144 133 37.0
e 144 267 24.0
e 144 186 33.0
e 144 258 40.0
e 144 181 26.0
e 144 172 13.0
e 144 94 3.0
e 144 151 31.0
e 145 240 1.0
e 146 78 37.0
e 146 151 11.0
e 146 182 24.0
e 146 124 42.0
e 146 211 47.0
e 146 108 15.0
e 146 158 26.0
e 146 298 17.0
e 146 49 48.0
e 146 46 48.0
e 146 41 46.0
e 146 300 47.0
e 146 128 17.0
e 146 53 22.0
e 146 39 48.0
e 146 202 48.0
e 146 197 7.0
e 146 166 7.0
e 146 258 41.0
e 146 249 46.0
e 146 65 46.0
e 146 232 35.0
e 146 309 9.0
e 146 301 38.0
e 147 219 1.0
e 148 59 36.0
e 149 229 1.0
e 150 214 26.0
e 151 149 2.0
e 152 59 7.0
e 153 250 1.0
e 154 106 1.0
e 155 6 1.0
e 156 257 1.0
e 157 143 1.0
e 158 257 16.0
e 158 101 27.0
e 158 12 22.0
e 158 266 22.0
e 158 37 4.0
e 158 285 18.0
e 158 170 4.0
e 158 221 25.0
e 158 258 40.0
e 158 315 28.0
e 158 136 46.0
e 158 165 23.0
e 158 13 45.0
e 158 241 15.0
e 158 14 8.0
e 158 104 44.0
e 158 290 13.0
e 158 207 22.0
e 158 254 39.0
e 158 93 16.0
e 158 9 36.0
e 158 105 31.0
e 159 130 2.0
e 160 1 44.0
e 160 285 36.0
e 160 311 30.0
e 160 36 3.0
e 160 128 12.0
e 160 262 36.0
e 160 188 42.0
e 160 261 31.0
e 160 38 11.0
e 160 86 33.0
e 160 237 13.0
e 160 60 41.0
e 160 94 24.0
e 160 197 15.0
e 160 233 43.0
e 160 184 23.0
e 160 268 38.0
e 160 312 3.0
e 161 318 42.0
e 161 170 31.0
e 161 301 16.0
e 161 162 2.0
e 161 138 35.0
e 161 177 21.0
e 161 82 1.0
e 161 252 2.0
e 161 208 4.0
e 161 61 7.0
e 161 292 25.0
e 161 73 30.0
e 161 24 49.0
e 161 243 12.0
e 161 163 41.0
e 161 133 6.0
e 161 269 25.0
e 161 164 1.0
e 161 178 3.0
e 161 246 39.0
e 161 70 31.0
e 162 195 1.0
e 163 176 42.0
e 164 219 1.0
e 165 248 3.0
e 166 81 3.0
e 166 203 43.0
e 166 119 27.0
e 166 49 39.0
e 166 312 23.0
e 166 198 46.0
e 166 239 1.0
e 166 216 18.0
e 166 115 44.0
e 166 142 2.0
e 166 167 27.0
e 166 104 9.0
e 166 193 32.0
e 166 147 4.0
e 166 220 38.0
e 166 261 22.0
e 166 183 28.0
e 166 77 5.0
e 166 266 30.0
e 167 270 1.0
e 168 206 1.0
e 169 195 1.0
e 170 267 18.0
e 170 247 6.0
e 170 262 49.0
e 170 299 48.0
e 170 254 30.0
e 170 205 40.0
e 170 265 30.0
e 170 297 49.0
e 170 226 9.0
e 170 62 7.0
e 170 282 21.0
e 170 204 15.0
e 170 101 29.0
e 170 117 7.0
e 170 245 24.0
e 170 315 32.0
e 170 227 14.0
e 170 230 10.0
e 170 209 32.0
e 171 125 20.0
e 172 91 1.0
e 173 204 7.0
e 174 160 17.0
e 175 203 33.0
e 176 100 17.0
e 176 231 47.0
e 176 47 23.0
e 176 262 39.0
e 176 12 24.0
e 176 287 46.0
e 176 169 19.0
e 176 139 12.0
e 176 222 28.0
e 176 158 45.0
e 176 230 21.0
e 176 135 9.0
e 176 28 15.0
e 176 197 28.0
e 176 177 42.0
e 176 306 8.0
e 176 302 28.0
e 176 30 11.0
e 176 216 40.0
e 176 75 34.0
e 177 42 45.0
e 177 46 49.0
e 177 214 3.0
e 177 6 18.0
e 177 28 14.0
e 177 111 1.0
e 177 280 12.0
e 177 302 21.0
e 177 157 4.0
e 177 306 10.0
e 177 41 49.0
e 177 22 43.0
e 177 261 43.0
e 177 137 11.0
e 177 0 13.0
e 177 178 36.0
e 177 86 9.0
e 177 52 46.0
e 177 233 41.0
e 177 121 32.0
e 177 3 48.0
e 178 54 2.0
e 179 166 29.0
e 179 298 6.0
e 180 83 1.0
e 181 55 1.0
e 182 148 1.0
e 183 160 38.0
e 184 141 2.0
e 185 56 1.0
e 186 240 1.0
e 187 149 42.0
e 187 206 14.0
e 187 111 21.0
e 187 188 27.0
e 187 110 45.0
e 187 112 33.0
e 187 104 17.0
e 187 80 43.0
e 187 231 35.0
e 187 241 49.0
e 187 94 39.0
e 187 30 16.0
e 187 189 48.0
e 187 113 17.0
e 187 202 17.0
e 187 311 45.0
e 187 63 24.0
e 187 285 4.0
e 187 181 7.0
e 187 26 23.0
e 187 98 19.0
e 187 39 10.0
e 188 210 1.0
e 189 163 3.0
e 190 25 1.0
e 191 174 2.0
e 192 114 2.0
e 193 297 37.0
e 193 55 46.0
e 193 79 12.0
e 193 50 6.0
e 193 15 46.0
e 193 206 13.0
e 193 158 8.0
e 193 17 47.0
e 193 283 27.0
e 193 212 24.0
e 193 276 7.0
e 193 164 32.0
e 193 167 44.0
e 193 179 39.0
e 193 301 6.0
e 193 80 20.0
e 193 246 13.0
e 193 213 44.0
e 193 128 45.0
e 193 222 1.0
e 193 231 39.0
e 193 30 29.0
e 194 154 2.0
e 195 61 1.0
e 196 201 1.0
e 197 35 24.0
e 197 33 18.0
e 197 171 21.0
e 197 47 36.0
e 197 70 20.0
e 197 222 25.0
e 197 274 25.0
e 197 193 3.0
e 197 249 17.0
e 197 42 8.0
e 197 142 3.0
e 197 123 7.0
e 197 308 41.0
e 197 212 35.0
e 197 178 1.0
e 197 4 12.0
e 197 8 30.0
e 198 75 1.0
e 199 245 9.0
e 200 17 4.0
e 201 293 1.0
e 202 59 46.0
e 203 12 44.0
e 203 82 47.0
e 203 13 20.0
e 203 205 20.0
e 203 169 20.0
e 203 87 34.0
e 203 76 35.0
e 203 5 15.0
e 203 140 17.0
e 203 129 33.0
e 203 154 47.0
e 203 264 24.0
e 203 131 27.0
e 203 1 30.0
e 203 272 20.0
e 203 137 38.0
e 203 292 22.0
e 203 266 48.0
e 203 285 41.0
e 203 81 46.0
e 203 277 33.0
e 204 88 14.0
e 204 281 12.0
e 204 47 32.0
e 204 296 8.0
e 204 129 22.0
e 204 294 23.0
e 204 116 11.0
e 204 172 36.0
e 204 222 44.0
e 204 297 14.0
e 204 213 18.0
e 204 253 33.0
e 204 197 4.0
e 204 301 20.0
e 204 148 37.0
e 204 7 13.0
e 204 14 40.0
e 204 108 15.0
e 204 1 7.0
e 204 174 40.0
e 204 291 38.0
e 205 13 30.0
e 205 247 49.0
e 205 162 31.0
e 205 291 35.0
e 205 123 1.0
e 205 204 16.0
e 205 226 31.0
e 205 262 27.0
e 205 105 22.0
e 205 220 6.0
e 205 232 43.0
e 205 285 35.0
e 205 179 25.0
e 205 34 26.0
e 205 168 14.0
e 205 224 18.0
e 205 306 23.0
e 205 251 44.0
e 205 208 39.0
e 206 102 1.0
e 207 272 1.0
e 208 127 37.0
e 208 248 38.0
e 208 120 30.0
e 208 192 32.0
e 208 181 27.0
e 208 268 44.0
e 208 282 37.0
e 208 189 16.0
e 208 176 32.0
e 208 105 1.0
e 208 24 49.0
e 208 146 26.0
e 208 187 49.0
e 208 129 42.0
e 208 315 20.0
e 208 48 37.0
e 208 132 34.0
e 209 291 1.0
e 210 251 1.0
e 211 297 1.0
e 212 154 19.0
e 212 7 43.0
e 212 189 6.0
e 212 8 22.0
e 212 9 4.0
e 212 152 22.0
e 212 160 47.0
e 212 198 16.0
e 212 153 5.0
e 212 261 5.0
e 212 76 41.0
e 212 316 39.0
e 212 129 47.0
e 212 299 26.0
e 212 36 1.0
e 212 22 12.0
e 212 52 44.0
e 212 214 26.0
e 212 317 24.0
e 212 174 46.0
e 212 79 20.0
e 213 246 17.0
e 214 44 1.0
e 214 311 10.0
e 214 250 29.0
e 214 71 1.0
e 214 106 11.0
e 214 8 34.0
e 214 261 18.0
e 214 73 33.0
e 214 238 23.0
e 214 268 7.0
e 214 176 14.0
e 214 80 14.0
e 214 86 4.0
e 214 233 9.0
e 214 15 29.0
e 214 124 43.0
e 214 162 49.0
e 214 246 41.0
e 214 152 24.0
e 214 235 3.0
e 214 139 13.0
e 215 95 1.0
e 216 145 1.0
e 217 20 41.0
e 218 186 22.0
e 218 98 40.0
e 218 126 37.0
e 218 197 13.0
e 218 66 27.0
e 218 271 9.0
e 218 114 3.0
e 218 200 39.0
e 218 144 4.0
e 218 245 10.0
e 218 48 13.0
e 218 143 30.0
e 218 118 31.0
e 218 203 16.0
e 218 280 4.0
e 218 147 41.0
e 218 204 24.0
e 218 125 42.0
e 218 213 23.0
e 218 106 3.0
e 218 208 9.0
e 218 137 38.0
e 218 309 29.0
e 219 37 21.0
e 220 71 1.0
e 221 100 1.0
e 222 90 32.0
e 222 276 28.0
e 222 81 43.0
e 222 168 6.0
e 222 131 27.0
e 222 156 2.0
e 222 169 30.0
e 222 282 48.0
e 222 20 7.0
e 222 307 12.0
e 222 152 2.0
e 222 96 11.0
e 222 15 40.0
e 222 16 4.0
e 222 251 23.0
e 222 48 47.0
e 222 146 36.0
e 222 17 41.0
e 222 298 1.0
e 223 234 45.0
e 223 15 3.0
e 223 2 2.0
e 223 208 29.0
e 223 49 9.0
e 223 118 10.0
e 223 31 31.0
e 223 217 42.0
e 223 115 43.0
e 223 252 11.0
e 223 270 42.0
e 223 120 30.0
e 223 50 7.0
e 223 245 34.0
e 223 296 8.0
e 223 25 41.0
e 223 26 21.0
e 223 57 42.0
e 223 96 25.0
e 223 298 19.0
e 223 160 18.0
e 223 60 45.0
e 224 28 24.0
e 225 74 1.0
e 226 225 6.0
e 226 24 19.0
e 226 171 34.0
e 226 161 40.0
e 226 16 17.0
e 226 140 44.0
e 226 85 35.0
e 226 175 6.0
e 226 261 47.0
e 226 107 33.0
e 226 286 15.0
e 226 278 3.0
e 226 208 14.0
e 226 36 28.0
e 226 82 38.0
e 226 83 9.0
e 226 108 37.0
e 226 15 2.0
e 226 84 15.0
e 226 109 35.0
e 226 87 32.0
e 226 227 47.0
e 226 313 46.0
e 227 303 1.0
e 227 131 30.0
e 227 274 37.0
e 227 228 42.0
e 227 70 4.0
e 227 87 20.0
e 227 138 25.0
e 227 308 42.0
e 227 172 3.0
e 227 92 9.0
e 227 254 12.0
e 227 71 10.0
e 227 144 25.0
e 227 187 41.0
e 227 73 25.0
e 227 232 41.0
e 227 38 49.0
e 227 132 8.0
e 227 291 44.0
e 227 110 27.0
e 228 68 8.0
e 229 283 39.0
e 230 303 1.0
e 231 304 1.0
e 232 306 39.0
e 233 195 1.0
e 234 236 1.0
e 235 242 1.0
e 236 83 1.0
e 237 72 1.0
e 238 170 12.0
e 239 279 1.0
e 240 291 1.0
e 241 313 1.0
e 242 79 1.0
e 243 178 11.0
e 243 252 20.0
e 243 49 49.0
e 243 25 17.0
e 243 58 40.0
e 243 262 47.0
e 243 101 12.0
e 243 118 2.0
e 243 2 32.0
e 243 238 40.0
e 243 16 20.0
e 243 66 20.0
e 243 240 26.0
e 243 124 28.0
e 243 267 2.0
e 243 111 3.0
e 243 254 7.0
e 243 153 8.0
e 243 197 4.0
e 243 50 49.0
e 243 112 44.0
e 244 98 23.0
e 245 63 44.0
e 245 153 18.0
e 245 228 47.0
e 245 40 25.0
e 245 88 4.0
e 245 50 39.0
e 245 235 36.0
e 245 285 21.0
e 245 283 29.0
e 245 271 9.0
e 245 289 32.0
e 245 31 20.0
e 245 252 9.0
e 245 296 29.0
e 245 163 41.0
e 245 238 7.0
e 245 132 45.0
e 245 8 27.0
e 246 305 32.0
e 246 136 30.0
e 246 227 8.0
e 246 308 9.0
e 246 155 15.0
e 246 107 43.0
e 246 160 39.0
e 246 16 25.0
e 246 88 1.0
e 246 108 35.0
e 246 61 48.0
e 246 146 32.0
e 246 316 26.0
e 246 89 40.0
e 246 241 27.0
e 246 203 47.0
e 246 317 40.0
e 246 318 23.0
e 246 208 3.0
e 247 206 1.0
e 248 106 1.0
e 249 122 3.0
e 250 78 1.0
e 251 182 1.0
e 252 140 19.0
e 253 188 1.0
e 254 187 14.0
e 254 252 28.0
e 254 58 11.0
e 254 17 49.0
e 254 306 25.0
e 254 301 12.0
e 254 293 15.0
e 254 288 13.0
e 254 160 47.0
e 254 97 42.0
e 254 317 40.0
e 254 318 43.0
e 254 205 23.0
e 254 232 35.0
e 254 89 42.0
e 255 245 29.0
e 255 254 14.0
e 255 318 26.0
e 255 191 28.0
e 255 256 45.0
e 255 20 21.0
e 255 21 4.0
e 255 294 23.0
e 255 175 42.0
e 255 107 1.0
e 255 67 20.0
e 255 238 18.0
e 255 52 40.0
e 255 112 38.0
e 255 138 42.0
e 255 188 33.0
e 255 176 23.0
e 255 108 38.0
e 255 208 13.0
e 256 92 23.0
e 257 207 1.0
e 258 5 1.0
e 259 117 1.0
e 260 43 1.0
e 261 150 5.0
e 262 2 28.0
e 263 252 1.0
e 264 297 1.0
e 265 225 1.0
e 266 205 20.0
e 267 29 2.0
e 268 113 4.0
e 269 60 1.0
e 270 49 1.0
e 271 111 21.0
e 271 52 38.0
e 271 209 40.0
e 271 155 43.0
e 271 149 6.0
e 271 264 30.0
e 271 92 44.0
e 271 187 6.0
e 271 246 1.0
e 271 107 38.0
e 271 156 6.0
e 271 18 9.0
e 271 94 8.0
e 271 317 1.0
e 271 157 3.0
e 271 53 33.0
e 271 177 16.0
e 271 217 30.0
e 271 32 1.0
e 271 280 24.0
e 271 286 14.0
e 272 208 39.0
e 273 175 3.0
e 274 10 39.0
e 274 190 17.0
e 274 23 1.0
e 274 49 31.0
e 274 218 39.0
e 274 254 26.0
e 274 175 17.0
e 274 107 36.0
e 274 191 39.0
e 274 31 39.0
e 274 89 12.0
e 274 109 10.0
e 274 271 46.0
e 274 265 19.0
e 274 140 4.0
e 274 143 27.0
e 274 212 4.0
e 274 161 22.0
e 274 267 27.0
e 275 236 1.0
e 276 215 1.0
e 277 103 42.0
e 277 143 40.0
e 277 18 18.0
e 277 109 19.0
e 277 89 47.0
e 277 76 22.0
e 277 90 44.0
e 277 120 43.0
e 277 112 26.0
e 277 113 36.0
e 277 148 40.0
e 277 115 36.0
e 277 238 21.0
e 277 183 45.0
e 277 239 19.0
e 277 159 13.0
e 277 144 22.0
e 277 269 43.0
e 277 160 47.0
e 277 176 42.0
e 277 285 39.0
e 278 159 1.0
e 279 14 2.0
e 280 64 1.0
e 281 305 2.0
e 282 173 1.0
e 283 53 36.0
e 283 166 16.0
e 283 290 45.0
e 283 163 9.0
e 283 54 42.0
e 283 126 25.0
e 283 3 8.0
e 283 144 42.0
e 283 59 29.0
e 283 176 23.0
e 283 200 41.0
e 283 267 33.0
e 283 287 4.0
e 283 218 21.0
e 283 203 45.0
e 283 18 5.0
e 283 254 1.0
e 283 109 5.0
e 283 177 8.0
e 284 200 1.0
e 285 29 48.0
e 285 233 5.0
e 285 317 47.0
e 285 90 44.0
e 285 177 2.0
e 285 190 11.0
e 285 94 35.0
e 285 183 2.0
e 285 69 19.0
e 285 109 44.0
e 285 269 22.0
e 285 241 30.0
e 285 18 38.0
e 285 225 22.0
e 285 91 42.0
e 285 92 15.0
e 286 112 32.0
e 286 254 43.0
e 286 53 29.0
e 286 203 2.0
e 286 90 41.0
e 286 132 19.0
e 286 222 29.0
e 286 197 34.0
e 286 18 19.0
e 286 113 31.0
e 286 218 41.0
e 286 227 36.0
e 286 140 38.0
e 286 115 4.0
e 286 242 32.0
e 286 306 27.0
e 286 287 31.0
e 286 92 12.0
e 286 267 37.0
e 286 116 15.0
e 287 91 36.0
e 287 112 29.0
e 287 126 12.0
e 287 277 7.0
e 287 90 25.0
e 287 132 45.0
e 287 31 31.0
e 287 294 5.0
e 287 119 11.0
e 287 269 42.0
e 287 95 48.0
e 287 170 33.0
e 287 268 9.0
e 287 1 46.0
e 287 134 10.0
e 287 21 33.0
e 287 23 30.0
e 288 287 31.0
e 288 97 22.0
e 288 116 40.0
e 288 274 35.0
e 288 23 15.0
e 288 170 38.0
e 288 96 43.0
e 288 225 45.0
e 288 184 24.0
e 288 56 3.0
e 288 144 37.0
e 288 118 33.0
e 288 255 4.0
e 288 21 47.0
e 288 53 4.0
e 288 149 5.0
e 288 268 11.0
e 288 98 29.0
e 288 57 13.0
e 289 160 27.0
e 289 269 26.0
e 289 95 29.0
e 289 70 23.0
e 289 256 30.0
e 289 56 35.0
e 289 319 12.0
e 289 97 6.0
e 289 209 47.0
e 289 164 12.0
e 289 155 43.0
e 289 145 47.0
e 289 57 46.0
e 289 116 43.0
e 289 98 42.0
e 289 62 30.0
e 289 26 37.0
e 289 214 8.0
e 289 218 6.0
e 290 198 2.0
e 291 212 48.0
e 292 166 7.0
e 293 184 1.0
e 294 137 2.0
e 295 6 2.0
e 296 272 37.0
e 296 197 9.0
e 296 185 27.0
e 296 187 37.0
e 296 162 7.0
e 296 190 13.0
e 296 57 7.0
e 296 225 8.0
e 296 40 2.0
e 296 67 2.0
e 296 97 35.0
e 296 119 5.0
e 296 146 21.0
e 296 25 13.0
e 296 170 9.0
e 297 144 17.0
e 298 195 2.0
e 299 45 1.0
e 300 254 21.0
e 300 23 3.0
e 300 38 26.0
e 300 120 37.0
e 300 155 29.0
e 300 124 19.0
e 300 125 3.0
e 300 97 39.0
e 300 133 42.0
e 300 57 11.0
e 300 242 28.0
e 300 134 30.0
e 300 138 33.0
e 300 270 49.0
e 300 135 4.0
e 300 301 45.0
e 300 136 15.0
e 300 163 4.0
e 300 140 29.0
e 300 141 47.0
e 300 142 24.0
e 300 166 8.0
e 301 289 23.0
e 301 62 44.0
e 301 296 31.0
e 301 226 47.0
e 301 25 6.0
e 301 190 23.0
e 301 192 28.0
e 301 255 12.0
e 301 164 4.0
e 301 66 31.0
e 301 209 8.0
e 301 286 47.0
e 301 58 20.0
e 301 235 40.0
e 301 210 23.0
e 302 311 45.0
e 302 119 22.0
e 302 254 21.0
e 302 157 18.0
e 302 120 31.0
e 302 32 27.0
e 302 146 8.0
e 302 124 28.0
e 302 125 13.0
e 302 134 18.0
e 302 185 38.0
e 302 135 35.0
e 302 212 45.0
e 302 285 13.0
e 302 59 17.0
e 302 3 13.0
e 302 187 38.0
e 302 179 49.0
e 302 213 14.0
e 302 63 23.0
e 302 136 1.0
e 302 190 32.0
e 303 109 41.0
e 304 311 29.0
e 305 1 1.0
e 306 211 20.0
e 306 159 41.0
e 306 273 15.0
e 306 170 7.0
e 306 212 15.0
e 306 191 48.0
e 306 317 25.0
e 306 32 38.0
e 306 27 44.0
e 306 226 27.0
e 306 26 11.0
e 306 218 13.0
e 306 138 30.0
e 306 271 34.0
e 306 274 46.0
e 307 171 1.0
e 308 159 32.0
e 308 191 20.0
e 308 203 22.0
e 308 125 12.0
e 308 271 5.0
e 308 301 35.0
e 308 219 44.0
e 308 142 17.0
e 308 134 23.0
e 308 296 19.0
e 308 38 11.0
e 308 212 43.0
e 308 204 35.0
e 308 27 30.0
e 308 136 41.0
e 308 147 42.0
e 308 222 24.0
e 308 156 36.0
e 308 3 8.0
e 309 199 36.0
e 309 125 7.0
e 309 300 41.0
e 309 27 18.0
e 309 317 19.0
e 309 134 27.0
e 309 59 31.0
e 309 271 6.0
e 309 39 15.0
e 309 242 19.0
e 309 142 42.0
e 309 63 26.0
e 309 147 36.0
e 309 157 46.0
e 309 292 1.0
e 309 166 34.0
e 309 170 35.0
e 309 243 39.0
e 309 66 15.0
e 309 223 44.0
e 310 51 1.0
e 311 95 7.0
e 311 219 3.0
e 311 271 34.0
e 311 147 14.0
e 311 306 21.0
e 311 158 14.0
e 311 27 41.0
e 311 161 3.0
e 311 41 21.0
e 311 166 39.0
e 311 177 29.0
e 311 224 47.0
e 311 179 10.0
e 311 40 3.0
e 311 242 17.0
e 311 274 38.0
e 311 246 11.0
e 311 185 24.0
e 311 204 33.0
e 312 64 1.0
e 313 88 1.0
e 314 141 1.0
e 315 27 15.0
e 316 130 1.0
e 317 294 16.0
e 317 158 5.0
e 317 63 35.0
e 317 222 35.0
e 317 274 26.0
e 317 226 14.0
e 317 204 35.0
e 317 227 23.0
e 317 161 30.0
e 317 235 41.0
e 317 308 49.0
e 317 213 19.0
e 317 275 45.0
e 318 139 1.0
e 319 248 1.0
